n = 10;
m = 5;
maxTime = 1140;
delayTime = 15;
delayTrain = 2;
delayDuration = 5;
distance = [5,5,5,5];
passengerStart = [0,0,6,14,0];
passengerFlow = [0,10,10,10,0];
scheduledArrival = [|0,5,13,21,29, |0,15,23,31,39, |0,25,33,41,49, |0,35,43,51,59, |0,45,53,61,69, |0,55,63,71,79, |0,65,73,81,89, |0,75,83,91,99, |0,85,93,101,109, |0,95,103,111,119|];
scheduledDeparture = [|0,8,16,24,32, |10,18,26,34,42, |20,28,36,44,52, |30,38,46,54,62, |40,48,56,64,72, |50,58,66,74,82, |60,68,76,84,92, |70,78,86,94,102, |80,88,96,104,112, |90,98,106,114,122|];
capacity = 500;
